(set-info :smt-lib-version 2.6)
(set-logic QF_S)
(set-info :source |
Generated by: Hung-En Wang, Tzung-Lin Tsai, Chun-Han Lin, Fang Yu, and Jie-Hong R. Jiang
Generated on: 2019-02-28
Generator: Stranger
Application: Security analysis of string manipulating web applications
Target solver: CVC4, Norn, Z3-str2
Publication:
Hung-En Wang, Tzung-Lin Tsai, Chun-Han Lin, Fang Yu, Jie-Hong R. Jiang:
String Analysis via Automata Manipulation with Logic Circuit Representation. CAV (1) 2016: 241-260.
|)
(set-info :license "https://creativecommons.org/licenses/by/4.0/")
(set-info :category "industrial")
(set-info :status unknown)

(declare-fun sigmaStar_0 () String)
(declare-fun sigmaStar_1 () String)
(declare-fun sigmaStar_2 () String)
(declare-fun sigmaStar_45 () String)
(declare-fun x_44 () String)
(declare-fun literal_6 () String)
(declare-fun literal_4 () String)
(declare-fun literal_5 () String)
(declare-fun literal_46 () String)
(declare-fun x_47 () String)
(declare-fun sigmaStar_51 () String)
(declare-fun literal_53 () String)
(declare-fun x_52 () String)
(declare-fun epsilon () String)
(declare-fun literal_50 () String)
(declare-fun x_56 () String)
(declare-fun literal_57 () String)
(declare-fun x_58 () String)
(declare-fun x_61 () String)
(declare-fun literal_60 () String)
(declare-fun x_62 () String)
(assert (= literal_6 "\u{2f}"))
(assert (= literal_4 "\u{77}\u{64}\u{69}\u{72}"))
(assert (= literal_5 "\u{2f}"))
(assert (or (= x_44 literal_6) (= x_44 literal_4) (= x_44 literal_5)))
(assert (= literal_46 "\u{2f}"))
(assert (= x_47 (str.++ x_44 literal_46)))
(assert (= literal_53 "\u{20}\u{69}\u{68}\u{65}\u{69}\u{67}\u{68}\u{74}\u{3a}\u{20}\u{27}"))
(assert (= epsilon ""))
(assert (= literal_50 "\u{55}\u{6e}\u{6b}\u{6e}\u{6f}\u{77}\u{6e}"))
(assert (or (= x_52 epsilon) (= x_52 literal_50)))
(assert (= x_56 (str.++ literal_53 x_52)))
(assert (= literal_57 "\u{27}\u{2c}\u{20}\u{69}\u{6d}\u{6f}\u{64}\u{69}\u{66}\u{69}\u{65}\u{64}\u{3a}\u{20}\u{27}"))
(assert (= x_58 (str.++ x_56 literal_57)))
(assert (= x_61 (str.++ x_58 sigmaStar_51)))
(assert (= literal_60 "\u{27}\u{20}\u{7d}\u{29}\u{5c}\u{22}\u{20}\u{68}\u{72}\u{65}\u{66}\u{3d}\u{5c}\u{22}\u{23}\u{5c}\u{22}\u{3e}\u{3c}\u{2f}\u{61}\u{3e}"))
(assert (= x_62 (str.++ x_61 literal_60)))
(assert (str.in_re x_62 (re.++ (re.* re.allchar) (re.++ (str.to_re "\u{5c}\u{3c}\u{53}\u{43}\u{52}\u{49}\u{50}\u{54}") (re.* re.allchar)))))
(check-sat)
(exit)
